12
0 64 71 61 43 40 36 51 26 68 37 52
64 0 32 37 36 36 64 46 57 42 37 41
71 32 0 46 57 73 23 54 37 30 69 59
61 37 46 0 70 9 39 12 65 29 43 54
43 36 57 70 0 50 43 71 24 45 64 90
40 36 73 9 50 0 80 26 73 74 38 65
36 64 23 39 43 80 0 21 37 58 64 30
51 46 54 12 71 26 21 0 47 30 73 74
26 57 37 65 24 73 37 47 0 38 84 49
68 42 30 29 45 74 58 30 38 0 56 55
37 37 69 43 64 38 64 73 84 56 0 55
52 41 59 54 90 65 30 74 49 55 55 0
